200
100
100
100
99
98
97
97
97
97
97
96
96
95
95
93
93
93
92
92
91
91
89
88
88
88
88
88
86
86
85
85
85
84
83
83
83
82
81
80
79
79
78
78
77
77
75
74
74
74
73
73
72
72
72
71
71
71
70
70
70
70
69
69
67
67
66
66
65
65
65
64
64
64
63
63
63
62
62
62
61
60
60
59
59
59
59
59
58
58
57
57
57
56
56
55
55
55
55
54
54
52
52
52
51
51
51
50
50
50
49
49
49
49
48
47
47
47
45
44
44
44
43
43
43
43
43
41
41
41
40
40
39
39
39
39
38
37
37
37
36
36
36
35
35
34
33
33
31
31
30
29
28
28
28
27
27
25
25
24
23
23
23
22
22
21
21
21
19
19
19
17
17
17
17
16
16
15
14
14
14
14
13
13
12
11
10
10
10
9
9
9
8
7
6
6
4
4
3
3
3
2
